(set-info :Origin "This instance was generated by: BanditFuzz-- an RL fuzzer for SMT solvers" )
(set-info :Author "Joe Scott, Fed Mora, Vijay Ganesh" )
(set-info :Contact "Joe Scott, joseph.scott@uwaterloo.ca")
; solvers/z3.sh
; 	time => 1.0055642127990723
; 	answer => sat
; solvers/bitwuzla.sh
; 	time => 0.48561549186706543
; 	answer => sat
; solvers/cvc4.sh
; 	time => 0.11522579193115234
; 	answer => err
(set-logic QF_BV)
(declare-const bool_0 Bool)
(declare-const bool_1 Bool)
(declare-const bool_2 Bool)
(declare-const bool_3 Bool)
(declare-const bool_4 Bool)
(declare-const bv_0 (_ BitVec 32))
(declare-const bv_1 (_ BitVec 32))
(declare-const bv_2 (_ BitVec 32))
(declare-const bv_3 (_ BitVec 32))
(declare-const bv_4 (_ BitVec 32))
(assert (xor (bvule (bvadd bv_2 #xa9e474fb ) (bvurem #xa4e4a19f  bv_1)) (bvslt (bvshl #xf00193be  bv_4) (bvmul bv_4 bv_2))))
(assert (=> (bvule (bvnand #x3d4d7d62  bv_3) (bvlshr bv_4 bv_3)) (bvugt (bvand bv_0 bv_0) (bvand bv_3 #x2e40e0da ))))
(assert (bvsle (bvand (bvlshr #xbbf27ef0  bv_0) (bvadd bv_0 #x6691506c )) (bvsrem (bvxor bv_4 #x0499feb3 ) (bvlshr bv_2 bv_0))))
(assert (bvult (bvnand (bvshl #x93eb187e  bv_4) (bvsrem #x38c7b38c  bv_4)) (bvsdiv (bvsdiv #xf4def3b6  #x391cae0e ) (bvmul bv_0 #x010e1644 ))))
(assert (bvsgt (bvsub (bvmul bv_1 #x17a2ced8 ) (bvsmod #xa8341630  bv_1)) (bvudiv (bvnor #xa025bd06  #x922275b5 ) (bvxnor #x81d0f4ec  bv_0))))
(check-sat)
(exit)
